68
1 0 58
2 0 13
2 1 28
3 0 17
3 1 49
3 2 49
4 0 12
4 1 8
4 2 37
4 3 16
5 0 10
5 1 35
5 2 10
5 3 41
5 4 1
6 0 45
6 1 42
6 2 14
6 3 47
6 4 21
6 5 44
7 0 31
7 1 41
7 2 24
7 3 27
7 4 37
7 5 5
7 6 8
8 0 5
8 1 51
8 2 3
8 3 26
8 4 38
8 5 31
8 6 1
8 7 32
9 0 14
9 1 26
9 2 50
9 3 21
9 4 51
9 5 46
9 6 28
9 7 36
9 8 56
10 0 43
10 1 4
10 2 6
10 3 29
10 4 54
10 5 30
10 6 9
10 7 43
10 8 31
10 9 30
11 0 35
11 1 55
11 2 32
11 3 12
11 4 34
11 5 20
11 6 56
11 7 45
11 8 3
11 9 38
11 10 16
12 0 11
12 1 43
12 2 24
12 3 49
12 4 48
12 5 13
12 6 22
12 7 16
12 8 49
12 9 57
12 10 29
12 11 20
13 0 30
13 1 40
13 2 12
13 3 28
13 4 58
13 5 24
13 6 10
13 7 48
13 8 1
13 9 3
13 10 44
13 11 7
13 12 24
14 0 25
14 1 34
14 2 15
14 3 2
14 4 53
14 5 16
14 6 4
14 7 45
14 8 14
14 9 3
14 10 39
14 11 5
14 12 8
14 13 49
15 0 34
15 1 19
15 2 50
15 3 9
15 4 13
15 5 25
15 6 38
15 7 29
15 8 43
15 9 14
15 10 55
15 11 45
15 12 11
15 13 4
15 14 31
16 0 21
16 1 19
16 2 28
16 3 15
16 4 46
16 5 44
16 6 27
16 7 47
16 8 47
16 9 21
16 10 22
16 11 49
16 12 35
16 13 39
16 14 18
16 15 19
17 0 41
17 1 9
17 2 45
17 3 49
17 4 11
17 5 30
17 6 57
17 7 25
17 8 27
17 9 2
17 10 54
17 11 5
17 12 22
17 13 8
17 14 7
17 15 48
17 16 18
18 0 23
18 1 46
18 2 16
18 3 15
18 4 32
18 5 43
18 6 1
18 7 19
18 8 36
18 9 13
18 10 1
18 11 55
18 12 51
18 13 37
18 14 7
18 15 49
18 16 19
18 17 36
19 0 18
19 1 37
19 2 1
19 3 16
19 4 11
19 5 23
19 6 20
19 7 15
19 8 56
19 9 41
19 10 8
19 11 54
19 12 50
19 13 2
19 14 4
19 15 12
19 16 33
19 17 22
19 18 56
20 0 18
20 1 34
20 2 29
20 3 40
20 4 55
20 5 9
20 6 21
20 7 2
20 8 25
20 9 11
20 10 25
20 11 34
20 12 35
20 13 37
20 14 55
20 15 27
20 16 5
20 17 57
20 18 27
20 19 38
21 0 43
21 1 51
21 2 9
21 3 53
21 4 25
21 5 7
21 6 36
21 7 54
21 8 47
21 9 23
21 10 23
21 11 56
21 12 12
21 13 39
21 14 17
21 15 2
21 16 20
21 17 55
21 18 6
21 19 42
21 20 5
22 0 52
22 1 37
22 2 51
22 3 34
22 4 32
22 5 50
22 6 50
22 7 37
22 8 6
22 9 39
22 10 13
22 11 52
22 12 26
22 13 36
22 14 46
22 15 26
22 16 51
22 17 33
22 18 36
22 19 41
22 20 28
22 21 14
23 0 23
23 1 50
23 2 45
23 3 47
23 4 2
23 5 10
23 6 33
23 7 19
23 8 45
23 9 48
23 10 28
23 11 29
23 12 51
23 13 20
23 14 20
23 15 11
23 16 40
23 17 26
23 18 21
23 19 27
23 20 51
23 21 9
23 22 55
24 0 10
24 1 53
24 2 29
24 3 27
24 4 36
24 5 10
24 6 46
24 7 17
24 8 16
24 9 13
24 10 45
24 11 4
24 12 6
24 13 14
24 14 53
24 15 58
24 16 45
24 17 28
24 18 26
24 19 25
24 20 37
24 21 17
24 22 20
24 23 9
25 0 30
25 1 15
25 2 2
25 3 18
25 4 35
25 5 15
25 6 32
25 7 38
25 8 57
25 9 31
25 10 34
25 11 34
25 12 27
25 13 14
25 14 31
25 15 14
25 16 3
25 17 51
25 18 26
25 19 35
25 20 51
25 21 41
25 22 35
25 23 19
25 24 39
26 0 51
26 1 5
26 2 43
26 3 4
26 4 5
26 5 29
26 6 20
26 7 5
26 8 55
26 9 44
26 10 36
26 11 57
26 12 7
26 13 30
26 14 2
26 15 56
26 16 18
26 17 58
26 18 32
26 19 37
26 20 26
26 21 44
26 22 7
26 23 8
26 24 30
26 25 1
27 0 38
27 1 19
27 2 12
27 3 31
27 4 55
27 5 22
27 6 4
27 7 5
27 8 7
27 9 56
27 10 48
27 11 1
27 12 37
27 13 29
27 14 27
27 15 31
27 16 15
27 17 16
27 18 34
27 19 41
27 20 2
27 21 36
27 22 33
27 23 58
27 24 37
27 25 9
27 26 35
28 0 25
28 1 14
28 2 53
28 3 17
28 4 9
28 5 1
28 6 51
28 7 35
28 8 9
28 9 57
28 10 15
28 11 25
28 12 38
28 13 25
28 14 26
28 15 54
28 16 3
28 17 31
28 18 32
28 19 12
28 20 41
28 21 49
28 22 50
28 23 30
28 24 41
28 25 26
28 26 51
28 27 37
29 0 43
29 1 15
29 2 25
29 3 4
29 4 26
29 5 46
29 6 15
29 7 35
29 8 45
29 9 13
29 10 58
29 11 58
29 12 40
29 13 25
29 14 24
29 15 1
29 16 44
29 17 45
29 18 23
29 19 54
29 20 38
29 21 29
29 22 56
29 23 27
29 24 42
29 25 53
29 26 31
29 27 40
29 28 53
30 0 4
30 1 43
30 2 1
30 3 55
30 4 19
30 5 57
30 6 52
30 7 22
30 8 7
30 9 26
30 10 26
30 11 49
30 12 48
30 13 1
30 14 10
30 15 4
30 16 29
30 17 29
30 18 39
30 19 49
30 20 54
30 21 8
30 22 46
30 23 23
30 24 16
30 25 13
30 26 43
30 27 58
30 28 9
30 29 16
31 0 7
31 1 13
31 2 6
31 3 10
31 4 46
31 5 43
31 6 31
31 7 12
31 8 15
31 9 17
31 10 56
31 11 49
31 12 38
31 13 10
31 14 44
31 15 45
31 16 41
31 17 37
31 18 53
31 19 28
31 20 28
31 21 37
31 22 33
31 23 21
31 24 12
31 25 16
31 26 11
31 27 18
31 28 1
31 29 39
31 30 46
32 0 4
32 1 19
32 2 49
32 3 20
32 4 50
32 5 48
32 6 21
32 7 36
32 8 13
32 9 38
32 10 29
32 11 44
32 12 44
32 13 11
32 14 10
32 15 32
32 16 33
32 17 25
32 18 53
32 19 8
32 20 25
32 21 54
32 22 52
32 23 30
32 24 45
32 25 46
32 26 24
32 27 22
32 28 28
32 29 2
32 30 21
32 31 42
33 0 37
33 1 40
33 2 5
33 3 30
33 4 56
33 5 5
33 6 3
33 7 35
33 8 33
33 9 12
33 10 24
33 11 55
33 12 8
33 13 24
33 14 35
33 15 36
33 16 47
33 17 30
33 18 27
33 19 41
33 20 18
33 21 15
33 22 15
33 23 7
33 24 58
33 25 27
33 26 49
33 27 8
33 28 7
33 29 35
33 30 57
33 31 54
33 32 18
34 0 36
34 1 10
34 2 32
34 3 53
34 4 51
34 5 45
34 6 7
34 7 3
34 8 53
34 9 11
34 10 13
34 11 24
34 12 21
34 13 28
34 14 31
34 15 50
34 16 55
34 17 35
34 18 29
34 19 41
34 20 41
34 21 55
34 22 23
34 23 13
34 24 40
34 25 23
34 26 9
34 27 26
34 28 49
34 29 31
34 30 40
34 31 41
34 32 52
34 33 56
35 0 47
35 1 11
35 2 10
35 3 56
35 4 43
35 5 31
35 6 58
35 7 38
35 8 48
35 9 18
35 10 5
35 11 42
35 12 21
35 13 48
35 14 38
35 15 9
35 16 58
35 17 42
35 18 45
35 19 34
35 20 26
35 21 5
35 22 42
35 23 17
35 24 45
35 25 17
35 26 29
35 27 47
35 28 53
35 29 32
35 30 55
35 31 43
35 32 27
35 33 8
35 34 50
36 0 22
36 1 7
36 2 37
36 3 8
36 4 57
36 5 48
36 6 30
36 7 48
36 8 56
36 9 52
36 10 16
36 11 52
36 12 19
36 13 33
36 14 35
36 15 34
36 16 58
36 17 37
36 18 26
36 19 56
36 20 7
36 21 20
36 22 54
36 23 10
36 24 16
36 25 18
36 26 28
36 27 9
36 28 3
36 29 40
36 30 40
36 31 5
36 32 49
36 33 25
36 34 33
36 35 41
37 0 33
37 1 23
37 2 33
37 3 23
37 4 25
37 5 53
37 6 5
37 7 25
37 8 25
37 9 45
37 10 39
37 11 3
37 12 55
37 13 56
37 14 7
37 15 10
37 16 29
37 17 26
37 18 51
37 19 39
37 20 45
37 21 48
37 22 48
37 23 4
37 24 24
37 25 57
37 26 10
37 27 24
37 28 2
37 29 32
37 30 56
37 31 11
37 32 39
37 33 5
37 34 34
37 35 23
37 36 32
38 0 30
38 1 12
38 2 55
38 3 38
38 4 37
38 5 57
38 6 16
38 7 55
38 8 15
38 9 39
38 10 45
38 11 49
38 12 11
38 13 33
38 14 15
38 15 21
38 16 47
38 17 20
38 18 42
38 19 8
38 20 26
38 21 7
38 22 14
38 23 14
38 24 19
38 25 33
38 26 18
38 27 22
38 28 8
38 29 4
38 30 33
38 31 53
38 32 23
38 33 24
38 34 12
38 35 52
38 36 53
38 37 12
39 0 44
39 1 3
39 2 30
39 3 13
39 4 10
39 5 16
39 6 29
39 7 13
39 8 52
39 9 2
39 10 20
39 11 1
39 12 57
39 13 7
39 14 3
39 15 1
39 16 57
39 17 12
39 18 56
39 19 3
39 20 25
39 21 14
39 22 43
39 23 39
39 24 55
39 25 53
39 26 5
39 27 7
39 28 23
39 29 28
39 30 21
39 31 20
39 32 39
39 33 35
39 34 10
39 35 13
39 36 57
39 37 14
39 38 23
40 0 36
40 1 35
40 2 33
40 3 28
40 4 52
40 5 39
40 6 35
40 7 56
40 8 4
40 9 25
40 10 48
40 11 13
40 12 47
40 13 43
40 14 5
40 15 18
40 16 57
40 17 18
40 18 36
40 19 16
40 20 9
40 21 23
40 22 57
40 23 5
40 24 29
40 25 11
40 26 2
40 27 20
40 28 12
40 29 18
40 30 24
40 31 15
40 32 51
40 33 39
40 34 15
40 35 36
40 36 45
40 37 2
40 38 55
40 39 44
41 0 58
41 1 55
41 2 1
41 3 38
41 4 43
41 5 36
41 6 49
41 7 44
41 8 18
41 9 18
41 10 30
41 11 3
41 12 30
41 13 3
41 14 58
41 15 43
41 16 44
41 17 43
41 18 38
41 19 10
41 20 36
41 21 6
41 22 24
41 23 7
41 24 11
41 25 57
41 26 42
41 27 37
41 28 4
41 29 51
41 30 24
41 31 43
41 32 52
41 33 48
41 34 25
41 35 2
41 36 2
41 37 50
41 38 17
41 39 47
41 40 27
42 0 50
42 1 17
42 2 15
42 3 13
42 4 28
42 5 54
42 6 49
42 7 48
42 8 15
42 9 23
42 10 4
42 11 33
42 12 19
42 13 37
42 14 57
42 15 38
42 16 15
42 17 38
42 18 20
42 19 31
42 20 54
42 21 56
42 22 14
42 23 49
42 24 31
42 25 14
42 26 29
42 27 51
42 28 56
42 29 50
42 30 17
42 31 30
42 32 20
42 33 35
42 34 40
42 35 57
42 36 19
42 37 44
42 38 6
42 39 54
42 40 33
42 41 38
43 0 58
43 1 34
43 2 21
43 3 58
43 4 1
43 5 2
43 6 22
43 7 37
43 8 36
43 9 5
43 10 3
43 11 4
43 12 50
43 13 51
43 14 57
43 15 57
43 16 53
43 17 21
43 18 27
43 19 23
43 20 20
43 21 36
43 22 55
43 23 51
43 24 22
43 25 5
43 26 3
43 27 49
43 28 35
43 29 32
43 30 30
43 31 2
43 32 44
43 33 26
43 34 11
43 35 39
43 36 55
43 37 33
43 38 37
43 39 53
43 40 44
43 41 32
43 42 35
44 0 23
44 1 45
44 2 36
44 3 49
44 4 16
44 5 4
44 6 10
44 7 8
44 8 53
44 9 45
44 10 45
44 11 52
44 12 8
44 13 57
44 14 7
44 15 11
44 16 37
44 17 9
44 18 12
44 19 23
44 20 6
44 21 16
44 22 56
44 23 40
44 24 58
44 25 12
44 26 40
44 27 3
44 28 10
44 29 46
44 30 28
44 31 39
44 32 40
44 33 58
44 34 8
44 35 46
44 36 35
44 37 5
44 38 23
44 39 18
44 40 25
44 41 17
44 42 33
44 43 45
45 0 38
45 1 53
45 2 44
45 3 40
45 4 35
45 5 32
45 6 12
45 7 8
45 8 14
45 9 51
45 10 40
45 11 58
45 12 9
45 13 21
45 14 51
45 15 34
45 16 16
45 17 38
45 18 52
45 19 21
45 20 29
45 21 40
45 22 42
45 23 49
45 24 9
45 25 33
45 26 17
45 27 10
45 28 44
45 29 47
45 30 3
45 31 46
45 32 52
45 33 44
45 34 33
45 35 9
45 36 48
45 37 52
45 38 28
45 39 35
45 40 21
45 41 32
45 42 47
45 43 40
45 44 55
46 0 15
46 1 24
46 2 29
46 3 9
46 4 33
46 5 5
46 6 4
46 7 56
46 8 25
46 9 39
46 10 33
46 11 31
46 12 57
46 13 7
46 14 3
46 15 11
46 16 43
46 17 25
46 18 4
46 19 8
46 20 26
46 21 44
46 22 6
46 23 56
46 24 46
46 25 20
46 26 52
46 27 42
46 28 16
46 29 47
46 30 6
46 31 38
46 32 24
46 33 7
46 34 35
46 35 27
46 36 18
46 37 23
46 38 47
46 39 36
46 40 27
46 41 57
46 42 24
46 43 33
46 44 51
46 45 48
47 0 37
47 1 23
47 2 14
47 3 49
47 4 53
47 5 23
47 6 35
47 7 2
47 8 17
47 9 50
47 10 42
47 11 17
47 12 37
47 13 39
47 14 15
47 15 20
47 16 36
47 17 45
47 18 12
47 19 12
47 20 30
47 21 27
47 22 24
47 23 58
47 24 23
47 25 10
47 26 1
47 27 18
47 28 57
47 29 8
47 30 11
47 31 54
47 32 19
47 33 8
47 34 31
47 35 15
47 36 4
47 37 6
47 38 47
47 39 13
47 40 1
47 41 28
47 42 15
47 43 42
47 44 14
47 45 30
47 46 14
48 0 56
48 1 57
48 2 44
48 3 15
48 4 58
48 5 55
48 6 43
48 7 32
48 8 40
48 9 49
48 10 13
48 11 35
48 12 31
48 13 17
48 14 51
48 15 31
48 16 15
48 17 28
48 18 3
48 19 8
48 20 5
48 21 5
48 22 55
48 23 52
48 24 15
48 25 16
48 26 34
48 27 21
48 28 46
48 29 8
48 30 11
48 31 44
48 32 55
48 33 29
48 34 52
48 35 35
48 36 45
48 37 4
48 38 58
48 39 45
48 40 38
48 41 33
48 42 8
48 43 13
48 44 44
48 45 5
48 46 56
48 47 26
49 0 40
49 1 41
49 2 26
49 3 11
49 4 8
49 5 29
49 6 35
49 7 10
49 8 46
49 9 14
49 10 33
49 11 40
49 12 9
49 13 11
49 14 7
49 15 26
49 16 1
49 17 21
49 18 56
49 19 3
49 20 29
49 21 37
49 22 51
49 23 44
49 24 14
49 25 41
49 26 45
49 27 43
49 28 52
49 29 4
49 30 1
49 31 42
49 32 1
49 33 7
49 34 5
49 35 44
49 36 14
49 37 11
49 38 34
49 39 45
49 40 3
49 41 19
49 42 12
49 43 49
49 44 44
49 45 48
49 46 55
49 47 18
49 48 11
50 0 56
50 1 10
50 2 24
50 3 36
50 4 25
50 5 39
50 6 10
50 7 45
50 8 22
50 9 17
50 10 6
50 11 34
50 12 16
50 13 40
50 14 37
50 15 37
50 16 38
50 17 58
50 18 58
50 19 7
50 20 34
50 21 55
50 22 54
50 23 38
50 24 37
50 25 26
50 26 41
50 27 34
50 28 25
50 29 21
50 30 57
50 31 28
50 32 7
50 33 43
50 34 50
50 35 48
50 36 24
50 37 10
50 38 48
50 39 16
50 40 55
50 41 53
50 42 37
50 43 53
50 44 15
50 45 35
50 46 16
50 47 26
50 48 21
50 49 9
51 0 35
51 1 11
51 2 3
51 3 9
51 4 12
51 5 16
51 6 11
51 7 12
51 8 36
51 9 30
51 10 33
51 11 50
51 12 4
51 13 46
51 14 23
51 15 53
51 16 7
51 17 53
51 18 6
51 19 23
51 20 7
51 21 20
51 22 22
51 23 38
51 24 19
51 25 13
51 26 22
51 27 5
51 28 47
51 29 28
51 30 36
51 31 22
51 32 54
51 33 15
51 34 3
51 35 43
51 36 47
51 37 32
51 38 10
51 39 9
51 40 45
51 41 3
51 42 16
51 43 30
51 44 20
51 45 33
51 46 20
51 47 29
51 48 46
51 49 25
51 50 46
52 0 24
52 1 11
52 2 49
52 3 25
52 4 15
52 5 5
52 6 49
52 7 11
52 8 52
52 9 42
52 10 48
52 11 29
52 12 2
52 13 23
52 14 21
52 15 31
52 16 13
52 17 51
52 18 46
52 19 13
52 20 27
52 21 24
52 22 4
52 23 20
52 24 45
52 25 7
52 26 39
52 27 48
52 28 51
52 29 36
52 30 35
52 31 51
52 32 6
52 33 13
52 34 41
52 35 56
52 36 47
52 37 6
52 38 54
52 39 33
52 40 7
52 41 10
52 42 18
52 43 57
52 44 51
52 45 41
52 46 33
52 47 8
52 48 47
52 49 44
52 50 46
52 51 47
53 0 35
53 1 11
53 2 40
53 3 37
53 4 13
53 5 26
53 6 8
53 7 16
53 8 36
53 9 49
53 10 58
53 11 3
53 12 55
53 13 46
53 14 44
53 15 17
53 16 35
53 17 2
53 18 15
53 19 7
53 20 47
53 21 12
53 22 20
53 23 16
53 24 44
53 25 5
53 26 39
53 27 30
53 28 11
53 29 17
53 30 33
53 31 20
53 32 9
53 33 20
53 34 58
53 35 16
53 36 23
53 37 25
53 38 53
53 39 57
53 40 19
53 41 20
53 42 21
53 43 42
53 44 45
53 45 4
53 46 26
53 47 20
53 48 52
53 49 18
53 50 52
53 51 22
53 52 51
54 0 5
54 1 39
54 2 3
54 3 28
54 4 41
54 5 3
54 6 33
54 7 17
54 8 4
54 9 12
54 10 36
54 11 29
54 12 5
54 13 47
54 14 4
54 15 30
54 16 33
54 17 42
54 18 21
54 19 24
54 20 3
54 21 24
54 22 11
54 23 35
54 24 8
54 25 39
54 26 2
54 27 43
54 28 27
54 29 7
54 30 9
54 31 50
54 32 32
54 33 8
54 34 47
54 35 31
54 36 48
54 37 27
54 38 48
54 39 8
54 40 43
54 41 33
54 42 58
54 43 43
54 44 48
54 45 29
54 46 35
54 47 18
54 48 53
54 49 45
54 50 16
54 51 52
54 52 9
54 53 34
55 0 54
55 1 21
55 2 16
55 3 29
55 4 31
55 5 39
55 6 21
55 7 6
55 8 44
55 9 36
55 10 5
55 11 29
55 12 4
55 13 52
55 14 7
55 15 42
55 16 34
55 17 32
55 18 17
55 19 10
55 20 43
55 21 22
55 22 27
55 23 44
55 24 43
55 25 46
55 26 27
55 27 32
55 28 16
55 29 9
55 30 23
55 31 49
55 32 56
55 33 43
55 34 14
55 35 1
55 36 27
55 37 34
55 38 29
55 39 42
55 40 17
55 41 13
55 42 13
55 43 12
55 44 41
55 45 46
55 46 57
55 47 36
55 48 19
55 49 57
55 50 18
55 51 50
55 52 13
55 53 6
55 54 39
56 0 23
56 1 40
56 2 2
56 3 20
56 4 38
56 5 49
56 6 43
56 7 22
56 8 25
56 9 1
56 10 50
56 11 31
56 12 3
56 13 20
56 14 26
56 15 17
56 16 23
56 17 57
56 18 40
56 19 48
56 20 10
56 21 12
56 22 30
56 23 46
56 24 33
56 25 52
56 26 15
56 27 15
56 28 38
56 29 20
56 30 36
56 31 10
56 32 3
56 33 27
56 34 53
56 35 13
56 36 30
56 37 47
56 38 6
56 39 47
56 40 39
56 41 52
56 42 13
56 43 40
56 44 58
56 45 40
56 46 8
56 47 20
56 48 45
56 49 23
56 50 43
56 51 21
56 52 32
56 53 58
56 54 10
56 55 10
57 0 28
57 1 51
57 2 22
57 3 47
57 4 29
57 5 37
57 6 22
57 7 58
57 8 4
57 9 1
57 10 54
57 11 26
57 12 11
57 13 28
57 14 26
57 15 48
57 16 44
57 17 43
57 18 17
57 19 31
57 20 35
57 21 25
57 22 8
57 23 42
57 24 32
57 25 44
57 26 35
57 27 10
57 28 29
57 29 37
57 30 26
57 31 17
57 32 31
57 33 45
57 34 18
57 35 4
57 36 6
57 37 40
57 38 24
57 39 50
57 40 15
57 41 38
57 42 3
57 43 23
57 44 9
57 45 1
57 46 25
57 47 13
57 48 30
57 49 15
57 50 26
57 51 31
57 52 40
57 53 7
57 54 26
57 55 17
57 56 16
58 0 12
58 1 49
58 2 45
58 3 2
58 4 9
58 5 28
58 6 11
58 7 52
58 8 20
58 9 43
58 10 51
58 11 37
58 12 21
58 13 4
58 14 18
58 15 34
58 16 13
58 17 18
58 18 46
58 19 7
58 20 38
58 21 2
58 22 45
58 23 12
58 24 6
58 25 38
58 26 58
58 27 56
58 28 14
58 29 13
58 30 52
58 31 7
58 32 7
58 33 3
58 34 6
58 35 41
58 36 22
58 37 30
58 38 55
58 39 34
58 40 53
58 41 52
58 42 7
58 43 34
58 44 5
58 45 46
58 46 5
58 47 5
58 48 23
58 49 47
58 50 54
58 51 42
58 52 4
58 53 16
58 54 30
58 55 14
58 56 4
58 57 19
59 0 25
59 1 51
59 2 28
59 3 38
59 4 42
59 5 36
59 6 20
59 7 39
59 8 51
59 9 27
59 10 6
59 11 45
59 12 4
59 13 10
59 14 34
59 15 16
59 16 55
59 17 27
59 18 8
59 19 56
59 20 23
59 21 33
59 22 2
59 23 19
59 24 55
59 25 24
59 26 32
59 27 58
59 28 57
59 29 5
59 30 23
59 31 58
59 32 41
59 33 14
59 34 3
59 35 43
59 36 34
59 37 32
59 38 30
59 39 46
59 40 45
59 41 24
59 42 27
59 43 12
59 44 44
59 45 38
59 46 34
59 47 27
59 48 6
59 49 38
59 50 54
59 51 36
59 52 11
59 53 22
59 54 21
59 55 11
59 56 9
59 57 7
59 58 22
60 0 42
60 1 32
60 2 54
60 3 4
60 4 15
60 5 29
60 6 11
60 7 50
60 8 58
60 9 9
60 10 34
60 11 18
60 12 54
60 13 46
60 14 34
60 15 10
60 16 16
60 17 6
60 18 8
60 19 27
60 20 54
60 21 11
60 22 10
60 23 15
60 24 15
60 25 25
60 26 15
60 27 19
60 28 2
60 29 17
60 30 9
60 31 2
60 32 19
60 33 39
60 34 30
60 35 7
60 36 23
60 37 26
60 38 48
60 39 55
60 40 20
60 41 14
60 42 10
60 43 43
60 44 46
60 45 28
60 46 41
60 47 48
60 48 44
60 49 27
60 50 39
60 51 29
60 52 43
60 53 56
60 54 26
60 55 37
60 56 34
60 57 23
60 58 4
60 59 49
61 0 34
61 1 48
61 2 53
61 3 31
61 4 50
61 5 9
61 6 53
61 7 47
61 8 13
61 9 27
61 10 3
61 11 35
61 12 45
61 13 8
61 14 15
61 15 27
61 16 2
61 17 15
61 18 2
61 19 9
61 20 26
61 21 42
61 22 3
61 23 49
61 24 25
61 25 35
61 26 5
61 27 32
61 28 23
61 29 55
61 30 31
61 31 5
61 32 23
61 33 11
61 34 39
61 35 38
61 36 21
61 37 29
61 38 18
61 39 2
61 40 51
61 41 3
61 42 23
61 43 47
61 44 14
61 45 49
61 46 8
61 47 57
61 48 7
61 49 40
61 50 4
61 51 19
61 52 4
61 53 31
61 54 31
61 55 52
61 56 41
61 57 56
61 58 37
61 59 43
61 60 12
62 0 45
62 1 9
62 2 45
62 3 43
62 4 6
62 5 22
62 6 17
62 7 38
62 8 8
62 9 43
62 10 31
62 11 37
62 12 31
62 13 41
62 14 23
62 15 21
62 16 21
62 17 8
62 18 3
62 19 1
62 20 42
62 21 23
62 22 15
62 23 55
62 24 38
62 25 41
62 26 33
62 27 16
62 28 53
62 29 28
62 30 26
62 31 11
62 32 45
62 33 50
62 34 26
62 35 15
62 36 50
62 37 24
62 38 38
62 39 1
62 40 38
62 41 58
62 42 11
62 43 34
62 44 22
62 45 56
62 46 21
62 47 13
62 48 58
62 49 28
62 50 47
62 51 1
62 52 2
62 53 24
62 54 48
62 55 46
62 56 10
62 57 9
62 58 31
62 59 35
62 60 35
62 61 27
63 0 45
63 1 48
63 2 13
63 3 48
63 4 42
63 5 49
63 6 33
63 7 24
63 8 36
63 9 4
63 10 14
63 11 13
63 12 17
63 13 29
63 14 26
63 15 7
63 16 12
63 17 12
63 18 35
63 19 2
63 20 11
63 21 31
63 22 15
63 23 10
63 24 10
63 25 34
63 26 47
63 27 21
63 28 31
63 29 42
63 30 40
63 31 44
63 32 53
63 33 45
63 34 7
63 35 18
63 36 37
63 37 21
63 38 27
63 39 1
63 40 56
63 41 32
63 42 44
63 43 51
63 44 49
63 45 34
63 46 18
63 47 47
63 48 7
63 49 40
63 50 52
63 51 5
63 52 8
63 53 48
63 54 17
63 55 5
63 56 3
63 57 15
63 58 14
63 59 24
63 60 37
63 61 56
63 62 41
64 0 39
64 1 24
64 2 36
64 3 28
64 4 20
64 5 51
64 6 26
64 7 10
64 8 37
64 9 38
64 10 2
64 11 12
64 12 23
64 13 48
64 14 16
64 15 28
64 16 9
64 17 21
64 18 51
64 19 41
64 20 9
64 21 52
64 22 51
64 23 34
64 24 45
64 25 57
64 26 27
64 27 18
64 28 45
64 29 34
64 30 46
64 31 15
64 32 20
64 33 29
64 34 37
64 35 32
64 36 33
64 37 4
64 38 19
64 39 2
64 40 16
64 41 11
64 42 44
64 43 52
64 44 58
64 45 29
64 46 1
64 47 45
64 48 31
64 49 25
64 50 33
64 51 19
64 52 41
64 53 17
64 54 5
64 55 23
64 56 48
64 57 40
64 58 27
64 59 21
64 60 9
64 61 55
64 62 32
64 63 21
65 0 35
65 1 19
65 2 35
65 3 9
65 4 3
65 5 3
65 6 29
65 7 19
65 8 18
65 9 44
65 10 23
65 11 44
65 12 29
65 13 39
65 14 58
65 15 28
65 16 23
65 17 27
65 18 56
65 19 38
65 20 3
65 21 2
65 22 3
65 23 5
65 24 32
65 25 14
65 26 48
65 27 30
65 28 10
65 29 34
65 30 16
65 31 40
65 32 40
65 33 17
65 34 32
65 35 54
65 36 56
65 37 11
65 38 38
65 39 32
65 40 12
65 41 37
65 42 49
65 43 37
65 44 5
65 45 55
65 46 1
65 47 43
65 48 1
65 49 25
65 50 24
65 51 39
65 52 56
65 53 55
65 54 24
65 55 25
65 56 48
65 57 23
65 58 11
65 59 53
65 60 14
65 61 42
65 62 24
65 63 53
65 64 6
66 0 16
66 1 34
66 2 38
66 3 26
66 4 39
66 5 20
66 6 46
66 7 22
66 8 25
66 9 58
66 10 32
66 11 4
66 12 6
66 13 10
66 14 45
66 15 16
66 16 27
66 17 11
66 18 29
66 19 36
66 20 20
66 21 35
66 22 48
66 23 46
66 24 53
66 25 7
66 26 1
66 27 15
66 28 24
66 29 42
66 30 53
66 31 18
66 32 55
66 33 37
66 34 29
66 35 22
66 36 39
66 37 46
66 38 51
66 39 54
66 40 19
66 41 29
66 42 1
66 43 39
66 44 13
66 45 43
66 46 11
66 47 25
66 48 6
66 49 18
66 50 52
66 51 18
66 52 11
66 53 36
66 54 38
66 55 40
66 56 44
66 57 49
66 58 53
66 59 29
66 60 40
66 61 52
66 62 4
66 63 35
66 64 5
66 65 15
67 0 18
67 1 7
67 2 46
67 3 41
67 4 45
67 5 26
67 6 23
67 7 34
67 8 15
67 9 48
67 10 8
67 11 49
67 12 14
67 13 56
67 14 34
67 15 18
67 16 23
67 17 10
67 18 27
67 19 46
67 20 30
67 21 38
67 22 25
67 23 2
67 24 34
67 25 15
67 26 54
67 27 27
67 28 33
67 29 45
67 30 43
67 31 21
67 32 50
67 33 20
67 34 14
67 35 2
67 36 46
67 37 45
67 38 53
67 39 48
67 40 32
67 41 55
67 42 33
67 43 21
67 44 8
67 45 16
67 46 11
67 47 56
67 48 35
67 49 5
67 50 25
67 51 36
67 52 28
67 53 26
67 54 14
67 55 35
67 56 10
67 57 44
67 58 5
67 59 32
67 60 41
67 61 3
67 62 37
67 63 5
67 64 12
67 65 45
67 66 7
